
#FDF: Opened INPUT_TMP.244037260  for input. Unit: 11

fdf-debug              0     # Default value
SystemName     cut5                                                                                                                                
SystemLabel     cut5                                                                                                                                
NumberOfAtoms                        5
NumberOfSolventAtoms                        0
NumberOfSpecies                        3
NumberOfPartialFreeze              0     # Default value
AtomicCoordinatesFormat     Ang                                                                                                                                 

%block AtomicCoordinatesAndAtomicSpecies                                       
  3.5312040   1.7726339   0.2031177   1                                        
  4.6149709   1.8203763   0.3729198   2                                        
  2.6805761   2.2339491   0.7325198   2                                        
  3.8780593   0.3880710  -1.7415223   3                                        
  3.3981507   0.7804628  -0.7978693   3                                        
%endblock AtomicCoordinatesAndAtomicSpecies                                    


%block ChemicalSpeciesLabel                                                    
       1   6  C                                                                
       2   1  H                                                                
       3   7  N                                                                
%endblock ChemicalSpeciesLabel                                                 

NetCharge          0.000000000    
TotalSpin          0.000000000    
PFIntegrationOutput              0     # Default value
LinkAtoms              0     # Default value
OptimizationScheme                        0
WriIniParLas              F     # Default value
MD.InitialTemperature          300.0000000              K
# Above item originally: MD.InitialTemperature          300.0000000     K         
MD.TargetTemperature          300.0000000     K     # Default value
MD.TypeOfRun     Verlet                                                                                                                              
MD.UseSaveXV              T
MD.NumCGsteps                     1000
NEB.OptimizationMethod              2     # Default value
NEB.SpringConstant         0.2000000000         # Default value
NEB.NumImages              1     # Default value
MD.MaxCGDispl         0.2000000000     Bohr     # Default value
MD.MaxForceTol         0.1555739508E-02    Ry/Bohr
# Above item originally: MD.MaxForceTol         0.4000000000E-01 eV/Ang    
CG.Nick_center              F     # Default value
MD.LengthTimeStep         0.5000000000             fs
# Above item originally: MD.LengthTimeStep         0.5000000000     fs        
Tstep         0.1000000000         # Default value
MD.TrajFrec                        1
MD.Quench              F     # Default value
WriteCoordinates              1     # Default value
MD.MMxQMsteps              1     # Default value
WriteForcesQMMM              1     # Default value
SystemLabel     cut5                                                                                                                                
SystemLabel     cut5                                                                                                                                
