SystemName       cut5            
SystemLabel      cut5            
CenterMolecule   T    
NumberOfAtoms    5
NumberOfSpecies  3
NetCharge        0.0       
TotalSpin        0.0
MD.MaxForceTol   0.04 eV/Ang 
NumberOfSolventAtoms      0

%block ChemicalSpeciesLabel   
       1   6  C 
       2   1  H 
       3   7  N
%endblock ChemicalSpeciesLabel
 
AtomicCoordinatesFormat  Ang  
%block AtomicCoordinatesAndAtomicSpecies
  3.5312040   1.7726339   0.2031177   1
  4.6149709   1.8203763   0.3729198   2
  2.6805761   2.2339491   0.7325198   2
  3.8780593   0.3880710  -1.7415223   3
  3.3981507   0.7804628  -0.7978693   3
%endblock AtomicCoordinatesAndAtomicSpecies
 
%block SoluteAtomTypes   
  CT  C1    CHC 
  HC  H1    CHC 
  HC  H2    CHC 
  HC  H3    CHC 
  Cl  CL    CHC 
  Cl  CL    CLO 
%endblock SoluteAtomTypes
 
OptimizationScheme 0
 
MD.TypeOfRun      Verlet
MD.NumCGsteps     1000
MD.LengthTimeStep 1.0 fs
MD.InitialTemperature 300 K
MD.TrajFrec       1
MD.USeSaveXV      F
 
%block CutOffRadius       
QM    0.2                   
QMMM  100.0                 
MM    80.0                    
BLO   80.0                   
MMBLO 80.0
%endblock CutOffRadius    
